\* Source Pyomo model name=C2 *\

min 
x1:
+650 x2
+650 x3
+650 x4
+550 x5
+550 x6
+550 x7
+450 x8
+450 x9
+450 x10
+300 x11
+300 x12
+300 x13
+400 x14
+400 x15
+400 x16
+500 x17
+500 x18
+500 x19
+500 x20
+500 x21
+500 x22
+200 x23
+200 x24
+200 x25
+1200 x26
+1200 x27
+1200 x28
+1100 x29
+1100 x30
+1100 x31
+1000 x32
+1000 x33
+1000 x34
+550 x35
+550 x36
+550 x37
+400 x38
+400 x39
+400 x40
+350 x41
+350 x42
+350 x43

s.t.

c_e_x44_:
+1 x2
+1 x11
-1 x45
-1 x46
= -1150

c_e_x47_:
+1 x3
+1 x12
-1 x48
+0.95 x46
-1 x49
= 0

c_e_x50_:
+1 x4
+1 x13
-1 x51
+0.95 x49
-1 x52
= 0

c_e_x53_:
+1 x5
-1 x11
+1 x14
+0.5 x45
-1 x54
-1 x55
= -1700

c_e_x56_:
+1 x6
-1 x12
+1 x15
+0.5 x48
-1 x57
+0.95 x55
-1 x58
= 0

c_e_x59_:
+1 x7
-1 x13
+1 x16
+0.5 x51
-1 x60
+0.95 x58
-1 x61
= 0

c_e_x62_:
+1 x8
-1 x14
+0.5 x54
-1 x63
= -2400

c_e_x64_:
+1 x9
-1 x15
+0.5 x57
+0.9 x63
-1 x65
= 0

c_e_x66_:
+1 x10
-1 x16
+0.5 x60
+0.9 x65
-1 x67
= 0

c_e_x68_:
-1 x17
+1 x26
+0.5 x35
+1 x46
= 1250

c_e_x69_:
-1 x18
+1 x27
+0.5 x36
+1 x49
= 1800

c_e_x70_:
-1 x19
+1 x28
+0.5 x37
+1 x52
= 2500

c_e_x71_:
-1 x20
+1 x29
+0.5 x38
+1 x55
= 1600

c_e_x72_:
-1 x21
+1 x30
+0.5 x39
+1 x58
= 2250

c_e_x73_:
-1 x22
+1 x31
+0.5 x40
+1 x61
= 3000

c_e_x74_:
-1 x23
+1 x32
+0.5 x41
+1 x63
= 1200

c_e_x75_:
-1 x24
+1 x33
+0.5 x42
+1 x65
= 750

c_e_x76_:
-1 x25
+1 x34
+0.5 x43
+1 x67
= 0

c_u_x77_:
+1 x2
<= 600

c_u_x78_:
+1 x3
<= 600

c_u_x79_:
+1 x4
<= 600

c_u_x80_:
+1 x5
<= 900

c_u_x81_:
+1 x6
<= 900

c_u_x82_:
+1 x7
<= 900

c_u_x83_:
+1 x8
<= 500

c_u_x84_:
+1 x9
<= 500

c_u_x85_:
+1 x10
<= 500

c_u_x86_:
+1 x14
<= 300

c_u_x87_:
+1 x15
<= 300

c_u_x88_:
+1 x16
<= 300

c_u_x89_:
+1 x11
<= 340.0

c_u_x90_:
+1 x12
-0.2 x55
<= 0

c_u_x91_:
+1 x13
-0.2 x58
<= 0

c_u_x92_:
+1 x26
+1 x29
+1 x32
<= 175

c_u_x93_:
+1 x27
+1 x30
+1 x33
<= 175

c_u_x94_:
+1 x28
+1 x31
+1 x34
<= 175

c_u_x95_:
+1 x35
+1 x38
+1 x41
<= 80

c_u_x96_:
+1 x36
+1 x39
+1 x42
<= 80

c_u_x97_:
+1 x37
+1 x40
+1 x43
<= 80

c_e_x98_:
-1 x17
-1 x18
-1 x19
-1 x20
-1 x21
-1 x22
-1 x23
-1 x24
-1 x25
+1 x99
= 0

c_u_x100_:
+1 x99
<= 3111.0

bounds
   0.0 <= x2 <= +inf
   0.0 <= x3 <= +inf
   0.0 <= x4 <= +inf
   0.0 <= x5 <= +inf
   0.0 <= x6 <= +inf
   0.0 <= x7 <= +inf
   0.0 <= x8 <= +inf
   0.0 <= x9 <= +inf
   0.0 <= x10 <= +inf
   0.0 <= x11 <= +inf
   0.0 <= x12 <= +inf
   0.0 <= x13 <= +inf
   0.0 <= x14 <= +inf
   0.0 <= x15 <= +inf
   0.0 <= x16 <= +inf
   0.0 <= x17 <= +inf
   0.0 <= x18 <= +inf
   0.0 <= x19 <= +inf
   0.0 <= x20 <= +inf
   0.0 <= x21 <= +inf
   0.0 <= x22 <= +inf
   0.0 <= x23 <= +inf
   0.0 <= x24 <= +inf
   0.0 <= x25 <= +inf
   0.0 <= x26 <= +inf
   0.0 <= x27 <= +inf
   0.0 <= x28 <= +inf
   0.0 <= x29 <= +inf
   0.0 <= x30 <= +inf
   0.0 <= x31 <= +inf
   0.0 <= x32 <= +inf
   0.0 <= x33 <= +inf
   0.0 <= x34 <= +inf
   0.0 <= x35 <= +inf
   0.0 <= x36 <= +inf
   0.0 <= x37 <= +inf
   0.0 <= x38 <= +inf
   0.0 <= x39 <= +inf
   0.0 <= x40 <= +inf
   0.0 <= x41 <= +inf
   0.0 <= x42 <= +inf
   0.0 <= x43 <= +inf
   0.0 <= x45 <= +inf
   0.0 <= x48 <= +inf
   0.0 <= x51 <= +inf
   0.0 <= x54 <= +inf
   0.0 <= x57 <= +inf
   0.0 <= x60 <= +inf
   0.0 <= x46 <= +inf
   0.0 <= x49 <= +inf
   0.0 <= x52 <= +inf
   0.0 <= x55 <= +inf
   0.0 <= x58 <= +inf
   0.0 <= x61 <= +inf
   0.0 <= x63 <= +inf
   0.0 <= x65 <= +inf
   0.0 <= x67 <= +inf
   0.0 <= x99 <= +inf
end
